7 19 40 97 55 18 98 46 44 33 86 57 9 21 54 60 43 56 62 32 53 90 42 35 28 58 96 49 38 2 8 61 24 79 77 81 1 76 6 91 50 15 26 89 93 87 47 72 83 4 45 17 16 66 37 30 99 20 65 74 71 11 10 69 0 52 51 29 25 12 59 70 92 67 75 3 39 78 68 23 27 41 63 36 34 14 94 22 13 5 85 84 73 82 80 95 48 31 64 88 

